instances/in_50_25_9_2.dzn
n = 50;
k = 25;
h = 9;
tiles = array2d(1..n, 1..2,
[ 5,24
, 16,12
, 4,16
, 11,23
, 8,8
, 9,23
, 25,3
, 7,24
, 1,4
, 15,12
, 24,17
, 16,7
, 5,10
, 14,11
, 1,11
, 20,9
, 20,12
, 18,2
, 6,23
, 10,17
, 15,14
, 17,1
, 12,24
, 5,1
, 4,22
, 2,11
, 12,22
, 11,15
, 23,11
, 5,3
, 17,20
, 16,17
, 4,16
, 3,20
, 19,18
, 4,16
, 21,2
, 18,7
, 16,1
, 11,4
, 1,11
, 17,8
, 12,21
, 20,2
, 7,14
, 6,2
, 4,21
, 12,24
, 12,7
, 10,25
]);