instances/in_50_25_9_2.lp
#const n = 50.
#const k = 25.
#const h = 9.
tile(1,5,24).
tile(2,16,12).
tile(3,4,16).
tile(4,11,23).
tile(5,8,8).
tile(6,9,23).
tile(7,25,3).
tile(8,7,24).
tile(9,1,4).
tile(10,15,12).
tile(11,24,17).
tile(12,16,7).
tile(13,5,10).
tile(14,14,11).
tile(15,1,11).
tile(16,20,9).
tile(17,20,12).
tile(18,18,2).
tile(19,6,23).
tile(20,10,17).
tile(21,15,14).
tile(22,17,1).
tile(23,12,24).
tile(24,5,1).
tile(25,4,22).
tile(26,2,11).
tile(27,12,22).
tile(28,11,15).
tile(29,23,11).
tile(30,5,3).
tile(31,17,20).
tile(32,16,17).
tile(33,4,16).
tile(34,3,20).
tile(35,19,18).
tile(36,4,16).
tile(37,21,2).
tile(38,18,7).
tile(39,16,1).
tile(40,11,4).
tile(41,1,11).
tile(42,17,8).
tile(43,12,21).
tile(44,20,2).
tile(45,7,14).
tile(46,6,2).
tile(47,4,21).
tile(48,12,24).
tile(49,12,7).
tile(50,10,25).
